c description: Random 3-CNF over 13 variables and 26 clauses
p cnf 13 26
6 -9 12 0
-1 6 13 0
-2 5 -6 0
-2 -7 -12 0
1 3 11 0
4 -8 10 0
-4 5 13 0
6 11 -13 0
-2 5 8 0
6 -8 -11 0
-4 -8 -9 0
-2 11 12 0
1 -10 12 0
-2 -5 7 0
-6 7 13 0
1 2 -8 0
6 -9 -13 0
-3 -9 13 0
-1 10 12 0
-6 -8 12 0
4 11 -12 0
5 12 13 0
-8 -11 13 0
5 11 12 0
-1 -9 -10 0
-3 4 6 0